ORIGINAL CONSTRAINT

9
9,7,6,4,3,3,2,2,1
10

--------------------

NEW CONSTRAINTS

--------------------

1.0,0.0,0.0,0.0,-1.0,0.0,0.0,1.0,0.0
1.0

1.0,0.0,0.0,0.0,-1.0,0.0,1.0,0.0,0.0
1.0

1.0,0.0,0.0,0.0,-1.0,1.0,0.0,0.0,0.0
1.0

1.0,0.0,0.0,0.0,0.0,-1.0,0.0,1.0,0.0
1.0

1.0,0.0,0.0,0.0,0.0,-1.0,1.0,0.0,0.0
1.0

1.0,0.0,0.0,0.0,0.0,0.0,-1.0,1.0,0.0
1.0

1.0,1.0,0.0,1.0,0.0,0.0,0.0,0.0,0.0
1.0

1.0,1.0,1.0,0.0,0.0,0.0,0.0,0.0,0.0
1.0

1.0,1.0,0.0,0.0,0.0,1.0,0.0,0.0,1.0
2.0

1.0,1.0,0.0,0.0,1.0,0.0,0.0,0.0,1.0
2.0

1.0,1.0,1.0,1.0,0.0,0.0,0.0,0.0,1.0
2.0

2.0,1.0,0.0,0.0,0.0,0.0,1.0,1.0,0.0
2.0

2.0,1.0,1.0,0.0,0.0,0.0,1.0,1.0,1.0
3.0

3.0,2.0,2.0,1.0,1.0,1.0,1.0,1.0,1.0
4.0

